FILENAME:   /home/mcs001/s132664/testsets/IP/miplib2017/acc-tight4.mps.gz
SETTINGS:   settings_final_nosym_norestarts
TIMELIMIT:  7200
OUTPUTNAME: final_miplib_symretope_if_extended_generating_set_cpx_v802__settings_final_nosym_norestarts__3__
BINNAME:    bin/sbcs.linux.x86_64.gnu.opt.cpx
BASENAME:   acc-tight4.mps.gz
SEED:       3
@01 /home/mcs001/s132664/testsets/IP/miplib2017/acc-tight4.mps.gz ===========
@02 acc-tight4.mps.gz
@03 1686659437
SCIP version 8.0.2 [precision: 8 byte] [memory: block] [mode: optimized] [LP solver: CPLEX 20.1.0.0] [GitHash: 5f0473c]
Copyright (C) 2002-2022 Konrad-Zuse-Zentrum fuer Informationstechnik Berlin (ZIB)

Symretope propagation methods - (c) Jasper van Doornmalen, Christopher Hojny.
[GitHash: 2fd0484]

reading parameter file <../settings/settings_final_nosym_norestarts.set> ...

Changed settings:
limits/time = 7200
limits/restarts = 0
misc/usesymmetry = 0
randomization/randomseedshift = 3
constraints/orbisack/sepafreq = -1
constraints/symresack/sepafreq = -1
propagating/symmetry/detectsubgroups = FALSE
propagating/symmetry/usesymretopes = FALSE
propagating/symmetry/relabelsymretopes = 0
propagating/symmetry/ofsymcomptiming = 0
constraints/symretope/sepafreq = -1
constraints/symretope/peek = FALSE


solving problem ...

original problem has 1620 variables (1620 bin, 0 int, 0 impl, 0 cont) and 3285 constraints
presolving:
(round 1, exhaustive) 0 del vars, 0 del conss, 0 add conss, 0 chg bounds, 0 chg sides, 0 chg coeffs, 3249 upgd conss, 0 impls, 2448 clqs
   (0.1s) sparsify finished: 81/17073 (0.5%) nonzeros canceled - in total 81 canceled nonzeros, 81 changed coefficients, 0 added nonzeros
(round 2, exhaustive) 0 del vars, 0 del conss, 0 add conss, 0 chg bounds, 0 chg sides, 81 chg coeffs, 3249 upgd conss, 0 impls, 2448 clqs
(round 3, exhaustive) 0 del vars, 0 del conss, 0 add conss, 0 chg bounds, 0 chg sides, 81 chg coeffs, 3258 upgd conss, 0 impls, 2457 clqs
(round 4, exhaustive) 25 del vars, 0 del conss, 0 add conss, 0 chg bounds, 0 chg sides, 81 chg coeffs, 3258 upgd conss, 0 impls, 15180 clqs
(round 5, fast)       25 del vars, 27 del conss, 0 add conss, 0 chg bounds, 0 chg sides, 81 chg coeffs, 3258 upgd conss, 0 impls, 15180 clqs
(round 6, exhaustive) 50 del vars, 27 del conss, 0 add conss, 0 chg bounds, 0 chg sides, 81 chg coeffs, 3258 upgd conss, 0 impls, 15149 clqs
(round 7, fast)       50 del vars, 54 del conss, 0 add conss, 0 chg bounds, 0 chg sides, 81 chg coeffs, 3258 upgd conss, 0 impls, 15149 clqs
(round 8, exhaustive) 75 del vars, 54 del conss, 0 add conss, 0 chg bounds, 0 chg sides, 81 chg coeffs, 3258 upgd conss, 0 impls, 15208 clqs
(round 9, fast)       75 del vars, 85 del conss, 0 add conss, 0 chg bounds, 0 chg sides, 81 chg coeffs, 3258 upgd conss, 0 impls, 15208 clqs
   (0.6s) probing: 1000/1620 (61.7%) - 0 fixings, 81 aggregations, 42330 implications, 0 bound changes
   (0.9s) probing cycle finished: starting next cycle
   (0.9s) probing: 51/1539 (3.3%) - 0 fixings, 81 aggregations, 67841 implications, 0 bound changes
   (0.9s) probing aborted: 50/50 successive totally useless probings
(round 10, exhaustive) 81 del vars, 85 del conss, 0 add conss, 0 chg bounds, 0 chg sides, 81 chg coeffs, 3258 upgd conss, 0 impls, 15258 clqs
(round 11, fast)       81 del vars, 99 del conss, 0 add conss, 0 chg bounds, 0 chg sides, 81 chg coeffs, 3258 upgd conss, 0 impls, 15258 clqs
   (1.0s) probing: 56/1539 (3.6%) - 0 fixings, 81 aggregations, 67841 implications, 0 bound changes
   (1.0s) probing aborted: 50/50 successive totally useless probings
presolving (12 rounds: 12 fast, 8 medium, 8 exhaustive):
 81 deleted vars, 99 deleted constraints, 0 added constraints, 0 tightened bounds, 0 added holes, 0 changed sides, 81 changed coefficients
 0 implications, 15258 cliques
presolved problem has 1539 variables (1539 bin, 0 int, 0 impl, 0 cont) and 3186 constraints
    396 constraints of type <knapsack>
   2358 constraints of type <setppc>
     27 constraints of type <linear>
    405 constraints of type <logicor>
transformed objective value is always integral (scale: 1)
Presolving Time: 0.99

 time | node  | left  |LP iter|LP it/n|mem/heur|mdpt |vars |cons |rows |cuts |sepa|confs|strbr|  dualbound   | primalbound  |  gap   | compl. 
  1.2s|     1 |     0 |    58 |     - |    31M |   0 |1539 |3232 |3186 |   0 |  0 |  45 |   0 | 0.000000e+00 |      --      |    Inf | unknown
  8.1s|     1 |     0 | 20878 |     - |    34M |   0 |1539 |3434 |3189 |   3 |  1 |  47 |   0 | 0.000000e+00 |      --      |    Inf | unknown
  8.2s|     1 |     0 | 21052 |     - |    36M |   0 |1539 |3435 |3191 |   5 |  2 |  48 |   0 | 0.000000e+00 |      --      |    Inf | unknown
  8.9s|     1 |     0 | 24246 |     - |    36M |   0 |1539 |3441 |3199 |  13 |  3 |  54 |   0 | 0.000000e+00 |      --      |    Inf | unknown
  9.5s|     1 |     0 | 26913 |     - |    37M |   0 |1539 |3444 |3204 |  18 |  4 |  57 |   0 | 0.000000e+00 |      --      |    Inf | unknown
  9.8s|     1 |     0 | 27527 |     - |    37M |   0 |1539 |3446 |3206 |  20 |  5 |  59 |   0 | 0.000000e+00 |      --      |    Inf | unknown
 10.5s|     1 |     0 | 30833 |     - |    38M |   0 |1539 |3448 |3209 |  23 |  6 |  61 |   0 | 0.000000e+00 |      --      |    Inf | unknown
 11.1s|     1 |     0 | 33266 |     - |    38M |   0 |1539 |3451 |3212 |  26 |  7 |  64 |   0 | 0.000000e+00 |      --      |    Inf | unknown
 11.8s|     1 |     0 | 35864 |     - |    39M |   0 |1539 |3456 |3213 |  27 |  8 |  69 |   0 | 0.000000e+00 |      --      |    Inf | unknown
 12.3s|     1 |     0 | 38064 |     - |    39M |   0 |1539 |3459 |3218 |  32 |  9 |  72 |   0 | 0.000000e+00 |      --      |    Inf | unknown
 13.0s|     1 |     0 | 40641 |     - |    40M |   0 |1539 |3463 |3225 |  39 | 10 |  76 |   0 | 0.000000e+00 |      --      |    Inf | unknown
 13.6s|     1 |     0 | 43747 |     - |    40M |   0 |1539 |3471 |3227 |  41 | 11 |  84 |   0 | 0.000000e+00 |      --      |    Inf | unknown
 17.7s|     1 |     2 | 48945 |     - |    40M |   0 |1539 |3491 |3227 |  41 | 11 | 104 |  11 | 0.000000e+00 |      --      |    Inf | unknown
 32.0s|   100 |    35 |120674 | 777.0 |    44M |  20 |1539 |3616 |3217 |  58 |  0 | 229 |  11 | 0.000000e+00 |      --      |    Inf | unknown
*38.8s|   147 |     0 |147206 | 708.6 |    LP  |  21 |1539 |3697 |3216 |  58 |  0 | 310 |  11 | 0.000000e+00 | 0.000000e+00 |   0.00%| 100.00%

SCIP Status        : problem is solved [optimal solution found]
Solving Time (sec) : 38.84
Solving Nodes      : 147
Primal Bound       : +0.00000000000000e+00 (1 solutions)
Dual Bound         : +0.00000000000000e+00
Gap                : 0.00 %
SCIP Status        : problem is solved [optimal solution found]
Total Time         :      38.86
  solving          :      38.84
  presolving       :       0.99 (included in solving)
  reading          :       0.02
  copying          :       0.25 (26 #copies) (minimal 0.01, maximal 0.01, average 0.01)
Original Problem   :
  Problem name     : acc-tight4
  Variables        : 1620 (1620 binary, 0 integer, 0 implicit integer, 0 continuous)
  Constraints      : 3285 initial, 3285 maximal
  Objective        : minimize, 1 non-zeros (abs.min = 1, abs.max = 1)
Presolved Problem  :
  Problem name     : t_acc-tight4
  Variables        : 1539 (1539 binary, 0 integer, 0 implicit integer, 0 continuous)
  Constraints      : 3186 initial, 3697 maximal
  Objective        : minimize, 1 non-zeros (abs.min = 1, abs.max = 1)
  Nonzeros         : 16668 constraint, 34062 clique table
Presolvers         :   ExecTime  SetupTime  Calls  FixedVars   AggrVars   ChgTypes  ChgBounds   AddHoles    DelCons    AddCons   ChgSides   ChgCoefs
  boundshift       :       0.00       0.00      0          0          0          0          0          0          0          0          0          0
  convertinttobin  :       0.00       0.00      0          0          0          0          0          0          0          0          0          0
  domcol           :       0.01       0.00      6          0          0          0          0          0          0          0          0          0
  dualagg          :       0.00       0.00      0          0          0          0          0          0          0          0          0          0
  dualcomp         :       0.00       0.00      0          0          0          0          0          0          0          0          0          0
  dualinfer        :       0.00       0.00      0          0          0          0          0          0          0          0          0          0
  dualsparsify     :       0.02       0.00      1          0          0          0          0          0          0          0          0          0
  gateextraction   :       0.01       0.00      7          0          0          0          0          0          0          0          0          0
  implics          :       0.00       0.00      8          0          0          0          0          0          0          0          0          0
  inttobinary      :       0.00       0.00      0          0          0          0          0          0          0          0          0          0
  qpkktref         :       0.00       0.00      0          0          0          0          0          0          0          0          0          0
  redvub           :       0.00       0.00      0          0          0          0          0          0          0          0          0          0
  sparsify         :       0.04       0.00      3          0          0          0          0          0          0          0          0         81
  stuffing         :       0.00       0.00      0          0          0          0          0          0          0          0          0          0
  trivial          :       0.00       0.00     12          0          0          0          0          0          0          0          0          0
  tworowbnd        :       0.00       0.00      0          0          0          0          0          0          0          0          0          0
  dualfix          :       0.00       0.00     12          0          0          0          0          0          0          0          0          0
  genvbounds       :       0.00       0.00      0          0          0          0          0          0          0          0          0          0
  probing          :       0.79       0.00      5          0         81          0          0          0          0          0          0          0
  pseudoobj        :       0.00       0.00      0          0          0          0          0          0          0          0          0          0
  symmetry         :       0.00       0.00      0          0          0          0          0          0          0          0          0          0
  vbounds          :       0.00       0.00      2          0          0          0          0          0          0          0          0          0
  knapsack         :       0.05       0.00     25          0          0          0          0          0          0          0          0          0
  setppc           :       0.02       0.00     25          0          0          0          0          0         99          0          0          0
  linear           :       0.02       0.00     20          0          0          0          0          0          0          0          0          0
  logicor          :       0.01       0.00     24          0          0          0          0          0          0          0          0          0
  benders          :       0.00       0.00      0          0          0          0          0          0          0          0          0          0
  components       :       0.00       0.00      1          0          0          0          0          0          0          0          0          0
  root node        :          -          -      -          0          -          -          0          -          -          -          -          -
Constraints        :     Number  MaxNumber  #Separate #Propagate    #EnfoLP    #EnfoRelax  #EnfoPS    #Check   #ResProp    Cutoffs    DomReds       Cuts    Applied      Conss   Children
  benderslp        :          0          0          0          0         93          0          0         30          0          0          0          0          0          0          0
  integral         :          0          0          0          0         93          0          0         30          0          0          0          0          0          0        186
  knapsack         :        396+       409         11       8834          0          0          0         25       1402          0        391          0          0          0          0
  setppc           :       2358+      2375         11       8834          0          0          0          1       9888         24       4927          0          0          0          0
  linear           :         27+       247         12       8810          0          0          0          1        193          4         85          6          4          0          0
  logicor          :        405+       686         11       4002          0          0          0          1        409          7        213          0          0          0          0
  benders          :          0          0          0          0          0          0          0          2          0          0          0          0          0          0          0
  countsols        :          0          0          0          0          0          0          0          2          0          0          0          0          0          0          0
  components       :          0          0          0          0          0          0          0          0          0          0          0          0          0          0          0
Constraint Timings :  TotalTime  SetupTime   Separate  Propagate     EnfoLP     EnfoPS     EnfoRelax   Check    ResProp    SB-Prop
  benderslp        :       0.00       0.00       0.00       0.00       0.00       0.00       0.00       0.00       0.00       0.00
  integral         :       1.42       0.00       0.00       0.00       1.42       0.00       0.00       0.00       0.00       0.00
  knapsack         :       0.10       0.00       0.02       0.08       0.00       0.00       0.00       0.00       0.00       0.00
  setppc           :       0.31       0.00       0.00       0.29       0.00       0.00       0.00       0.00       0.00       0.00
  linear           :       0.02       0.00       0.00       0.01       0.00       0.00       0.00       0.00       0.00       0.00
  logicor          :       0.02       0.00       0.00       0.01       0.00       0.00       0.00       0.00       0.00       0.00
  benders          :       0.00       0.00       0.00       0.00       0.00       0.00       0.00       0.00       0.00       0.00
  countsols        :       0.00       0.00       0.00       0.00       0.00       0.00       0.00       0.00       0.00       0.00
  components       :       0.00       0.00       0.00       0.00       0.00       0.00       0.00       0.00       0.00       0.00
Propagators        : #Propagate   #ResProp    Cutoffs    DomReds
  dualfix          :          1          0          0          0
  genvbounds       :          0          0          0          0
  nlobbt           :          0          0          0          0
  obbt             :          0          0          0          0
  probing          :          0          0          0          0
  pseudoobj        :        704          0          0          0
  redcost          :        224          0          0          0
  rootredcost      :          1          0          0          0
  symmetry         :          0          0          0          0
  vbounds          :       1728          0          0          0
Propagator Timings :  TotalTime  SetupTime   Presolve  Propagate    ResProp    SB-Prop
  dualfix          :       0.00       0.00       0.00       0.00       0.00       0.00
  genvbounds       :       0.00       0.00       0.00       0.00       0.00       0.00
  nlobbt           :       0.00       0.00       0.00       0.00       0.00       0.00
  obbt             :       0.00       0.00       0.00       0.00       0.00       0.00
  probing          :       0.79       0.00       0.79       0.00       0.00       0.00
  pseudoobj        :       0.01       0.00       0.00       0.01       0.00       0.00
  redcost          :       0.01       0.00       0.00       0.01       0.00       0.00
  rootredcost      :       0.00       0.00       0.00       0.00       0.00       0.00
  symmetry         :       0.00       0.00       0.00       0.00       0.00       0.00
  vbounds          :       0.01       0.00       0.00       0.01       0.00       0.00
Conflict Analysis  :       Time      Calls    Success    DomReds  Conflicts   Literals    Reconvs ReconvLits   Dualrays   Nonzeros   LP Iters   (pool size: [10000,10000])
  propagation      :       0.00         31         31          -        120       23.5          6        9.8          -          -          -
  infeasible LP    :       0.05         53         49          -        457      151.2          1        7.0         24       46.8          0
  bound exceed. LP :       0.00          1          2          -          1        0.0          0        0.0          1        1.0          0
  strong branching :       0.00          0          0          -          0        0.0          0        0.0          -          -          0
  pseudo solution  :       0.00          0          0          -          0        0.0          0        0.0          -          -          -
  applied globally :       0.01          -          -          1        286       38.7          -          -         25          -          -
  applied locally  :          -          -          -          0          0        0.0          -          -          0          -          -
Separators         :   ExecTime  SetupTime      Calls  RootCalls    Cutoffs    DomReds  FoundCuts ViaPoolAdd  DirectAdd    Applied ViaPoolApp  DirectApp      Conss
  cut pool         :       0.01          -         52         21          -          -        237        115          -          -          -          -          -    (maximal pool size:        237)
  aggregation      :       0.02       0.00         19         11          0          0          0          0          0          0          0          0          0
  > cmir           :          -          -          -          -          -          -          -          0          0          0          0          0          -
  > flowcover      :          -          -          -          -          -          -          -          0          0          0          0          0          -
  > knapsackcover  :          -          -          -          -          -          -          -          0          0          0          0          0          -
  cgmip            :       0.00       0.00          0          0          0          0          0          0          0          0          0          0          0
  clique           :       0.17       0.00         11         11          0          0         82         96          0         28         28          0          0
  closecuts        :       0.00       0.00          0          0          0          0          0          0          0          0          0          0          0
  convexproj       :       0.00       0.00          0          0          0          0          0          0          0          0          0          0          0
  disjunctive      :       0.00       0.00          0          0          0          0          0          0          0          0          0          0          0
  eccuts           :       0.00       0.00          0          0          0          0          0          0          0          0          0          0          0
  gauge            :       0.00       0.00          0          0          0          0          0          0          0          0          0          0          0
  gomory           :       1.20       0.00         18         10          0          0        130         11          0          2          2          0          0
  > gomorymi       :          -          -          -          -          -          -          -          8          0          1          1          0          -
  > strongcg       :          -          -          -          -          -          -          -          3          0          1          1          0          -
  impliedbounds    :       0.01       0.00         19         11          0          0          0          0          0          0          0          0          0
  interminor       :       0.00       0.00          0          0          0          0          0          0          0          0          0          0          0
  intobj           :       0.00       0.00          0          0          0          0          0          0          0          0          0          0          0
  mcf              :       0.01       0.00          1          1          0          0          0          0          0          0          0          0          0
  minor            :       0.00       0.00          0          0          0          0          0          0          0          0          0          0          0
  mixing           :       0.00       0.00          0          0          0          0          0          0          0          0          0          0          0
  oddcycle         :       0.00       0.00          0          0          0          0          0          0          0          0          0          0          0
  rapidlearning    :       7.58       0.00         22          1          0       6617          0          0          0          0          0          0        404
  rlt              :       0.00       0.00         10         10          0          0          0          0          0          0          0          0          0
  zerohalf         :       0.49       0.00         19         11          0          0         41          8         16         24          8         16          0
Cutselectors       :   ExecTime  SetupTime      Calls  RootCalls   Selected     Forced   Filtered  RootSelec   RootForc   RootFilt 
  hybrid           :       0.00       0.00         20         11         59          0         66         41          0         56
Pricers            :   ExecTime  SetupTime      Calls       Vars
  problem variables:       0.00          -          0          0
Branching Rules    :   ExecTime  SetupTime   BranchLP  BranchExt   BranchPS    Cutoffs    DomReds       Cuts      Conss   Children
  allfullstrong    :       0.00       0.00          0          0          0          0          0          0          0          0
  cloud            :       0.00       0.00          0          0          0          0          0          0          0          0
  distribution     :       0.00       0.00          0          0          0          0          0          0          0          0
  fullstrong       :       0.00       0.00          0          0          0          0          0          0          0          0
  inference        :       0.00       0.00          0          0          0          0          0          0          0          0
  leastinf         :       0.00       0.00          0          0          0          0          0          0          0          0
  lookahead        :       0.00       0.00          0          0          0          0          0          0          0          0
  mostinf          :       0.00       0.00          0          0          0          0          0          0          0          0
  multaggr         :       0.00       0.00          0          0          0          0          0          0          0          0
  nodereopt        :       0.00       0.00          0          0          0          0          0          0          0          0
  pscost           :       0.00       0.00          0          0          0          0          0          0          0          0
  random           :       0.00       0.00          0          0          0          0          0          0          0          0
  relpscost        :       1.42       0.00         93          0          0          0          0          0          0        186
  vanillafullstrong:       0.00       0.00          0          0          0          0          0          0          0          0
Primal Heuristics  :   ExecTime  SetupTime      Calls      Found       Best
  LP solutions     :       0.00          -          -          0          0
  relax solutions  :       0.00          -          -          0          0
  pseudo solutions :       0.00          -          -          0          0
  strong branching :       0.00          -          -          0          0
  actconsdiving    :       0.00       0.00          0          0          0
  adaptivediving   :       0.00       0.00          0          0          0
  alns             :       0.61       0.00          4          0          0
  bound            :       0.00       0.00          0          0          0
  clique           :       0.01       0.00          1          0          0
  coefdiving       :       0.00       0.00          0          0          0
  completesol      :       0.00       0.00          0          0          0
  conflictdiving   :       0.95       0.00          1          0          0
  crossover        :       0.00       0.00          0          0          0
  dins             :       0.00       0.00          0          0          0
  distributiondivin:       0.00       0.00          0          0          0
  dps              :       0.00       0.00          0          0          0
  dualval          :       0.00       0.00          0          0          0
  farkasdiving     :       0.00       0.00          0          0          0
  feaspump         :       4.60       0.00          1          0          0
  fixandinfer      :       0.00       0.00          0          0          0
  fracdiving       :       0.00       0.00          0          0          0
  gins             :       0.00       0.00          0          0          0
  guideddiving     :       0.00       0.00          0          0          0
  indicator        :       0.00       0.00          0          0          0
  intdiving        :       0.00       0.00          0          0          0
  intshifting      :       0.00       0.00          0          0          0
  linesearchdiving :       0.00       0.00          0          0          0
  localbranching   :       0.00       0.00          0          0          0
  locks            :       0.01       0.00          1          0          0
  lpface           :       0.00       0.00          0          0          0
  mpec             :       0.00       0.00          0          0          0
  multistart       :       0.00       0.00          0          0          0
  mutation         :       0.00       0.00          0          0          0
  nlpdiving        :       0.00       0.00          0          0          0
  objpscostdiving  :       0.00       0.00          0          0          0
  octane           :       0.00       0.00          0          0          0
  ofins            :       0.00       0.00          0          0          0
  oneopt           :       0.00       0.00          0          0          0
  padm             :       0.00       0.00          0          0          0
  proximity        :       0.00       0.00          0          0          0
  pscostdiving     :       0.00       0.00          0          0          0
  randrounding     :       0.09       0.00         33          0          0
  rens             :       1.71       0.00          1          0          0
  reoptsols        :       0.00       0.00          0          0          0
  repair           :       0.00       0.00          0          0          0
  rins             :       0.00       0.00          0          0          0
  rootsoldiving    :       0.00       0.00          0          0          0
  rounding         :       0.05       0.00        116          0          0
  shiftandpropagate:       0.01       0.00          1          0          0
  shifting         :       0.04       0.00         45          0          0
  simplerounding   :       0.00       0.00          0          0          0
  subnlp           :       0.00       0.00          0          0          0
  trivial          :       0.00       0.00          2          0          0
  trivialnegation  :       0.00       0.00          0          0          0
  trustregion      :       0.00       0.00          0          0          0
  trysol           :       0.00       0.00          0          0          0
  twoopt           :       0.00       0.00          0          0          0
  undercover       :       0.00       0.00          0          0          0
  vbounds          :       0.02       0.00          1          0          0
  veclendiving     :       0.00       0.00          0          0          0
  zeroobj          :       0.00       0.00          0          0          0
  zirounding       :       0.01       0.00         93          0          0
  other solutions  :          -          -          -          0          -
LP                 :       Time      Calls Iterations  Iter/call   Iter/sec  Time-0-It Calls-0-It    ItLimit
  primal LP        :       0.14          4          0       0.00       0.00       0.14          4
  dual LP          :      18.37        183     121480     674.89    6611.25       0.00          3
  lex dual LP      :       0.00          0          0       0.00          -
  barrier LP       :       0.00          0          0       0.00          -       0.00          0
  resolve instable :       0.00          0          0       0.00          -
  diving/probing LP:       5.53          8      25727    3215.88    4650.84
  strong branching :       1.38         11       7669     697.18    5544.17          -          -         12
    (at root node) :          -         11       7669     697.18          -
  conflict analysis:       0.00          0          0       0.00          -
B&B Tree           :
  number of runs   :          1
  nodes            :        147 (93 internal, 54 leaves)
  feasible leaves  :          0
  infeas. leaves   :         53
  objective leaves :          1
  nodes (total)    :        147 (93 internal, 54 leaves)
  nodes left       :          0
  max depth        :         21
  max depth (total):         21
  backtracks       :         18 (12.2%)
  early backtracks :          0 (0.0%)
  nodes exc. ref.  :          0 (0.0%)
  delayed cutoffs  :          0
  repropagations   :         54 (197 domain reductions, 0 cutoffs)
  avg switch length:       2.84
  switching time   :       0.18
Root Node          :
  First LP value   : +0.00000000000000e+00
  First LP Iters   :         58 (575.15 Iter/sec)
  First LP Time    :       0.10
  Final Dual Bound : +0.00000000000000e+00
  Final Root Iters :      43747
  Root LP Estimate : +1.10572273139010e-02
Solution           :
  Solutions found  :          1 (1 improvements)
  First Solution   : +0.00000000000000e+00   (in run 1, after 147 nodes, 38.83 seconds, depth 20, found by <relaxation>)
  Gap First Sol.   :       0.00 %
  Gap Last Sol.    :       0.00 %
  Primal Bound     : +0.00000000000000e+00   (in run 1, after 147 nodes, 38.83 seconds, depth 20, found by <relaxation>)
  Dual Bound       : +0.00000000000000e+00
  Gap              :       0.00 %
Integrals          :      Total       Avg%
  primal-dual      :    3882.71      99.97
  primal-ref       :          -          - (not evaluated)
  dual-ref         :          -          - (not evaluated)
written solution information to file <results/final_miplib_symretope_if_extended_generating_set_cpx_v802__settings_final_nosym_norestarts__3__acc-tight4.mps.gz.sol>
@04 1686659476
